-1 9 4 10 1 3 0 6 4 3 6 5 3 9 -1 
6 0 6 2 10 6 10 -1 6 7 3 -1 6 7 -1 
2 0 5 6 2 2 5 0 3 6 8 5 0 4 -1 
5 7 6 9 8 4 8 3 3 10 5 4 10 4 -1 
4 1 1 10 3 1 1 10 6 1 6 -1 9 4 -1 
3 6 3 0 9 3 4 0 3 7 10 -1 5 10 -1 
4 0 10 2 1 1 2 7 5 -1 4 6 0 9 -1 
2 1 6 7 9 4 2 1 4 2 3 10 10 2 -1 
10 9 4 9 9 5 1 9 0 5 1 5 5 -1 -1 
8 4 3 2 10 -1 1 5 10 5 6 7 10 8 -1 
6 4 5 4 7 7 5 9 1 0 1 -1 5 -1 -1 
0 8 8 9 10 0 -1 3 4 1 5 9 0 4 -1 
7 8 -1 3 9 6 6 6 7 0 2 0 0 2 -1 
-1 2 10 4 8 -1 6 2 1 2 6 4 0 2 -1 
5 3 3 8 4 2 -1 4 6 7 8 1 2 9 -1 
